
%FILE DATA:	Soccer Computational Problem for MiniZinc Models	%
%AUTHOR:	Jack Wall	%
%CONTACT:  	116397063@umail.ucc.ie			%
%LAST UPDATE:	03/03/2020, 16:38:38						%
%DESCRIPTION: 	88 games played with 22 games left				%


n=11; %number of teams

%Games to play
games=[|7,8|2,4|2,3|11,8|5,3|7,1|5,11|10,1|4,3|1,3|8,1|3,2|1,10|1,4|7,4|4,6|2,11|8,10|10,9|4,2|1,5|7,3|];

%Initial points
iPoints=[14,19,24,20,21,32,28,18,29,16,16];

%POSITION CONSTRAINTS
% [|teamID, operator, position|...]
% operators index:
%  1 for =  operator
%  2 for >  operator
%  3 for >= operator
%  4 for <  operator
%  5 for <= operator
positionConstraints=[|6,4,2|3,2,1|9,2,2|];